c Optimised CNF encoding for 4x4 Sudoku
c Source: sudoku_4x4_02.txt
c Variables: 20  Clauses: 84
p cnf 20 84
1 2 0
3 0
4 5 0
6 0
7 8 0
9 10 0
11 12 0
13 14 0
15 0
16 17 0
18 0
19 20 0
-1 -2 0
-4 -5 0
-7 -8 0
-9 -10 0
-11 -12 0
-13 -14 0
-16 -17 0
-19 -20 0
1 4 0
2 0
3 5 0
6 7 0
9 0
8 10 0
11 0
13 15 0
12 14 0
16 19 0
17 18 0
20 0
-1 -4 0
-3 -5 0
-6 -7 0
-8 -10 0
-13 -15 0
-12 -14 0
-16 -19 0
-17 -18 0
1 6 0
16 0
2 17 0
7 11 0
12 18 0
8 0
9 13 0
14 0
3 10 0
4 0
15 19 0
5 20 0
-1 -6 0
-2 -17 0
-7 -11 0
-12 -18 0
-9 -13 0
-3 -10 0
-15 -19 0
-5 -20 0
1 6 7 0
2 0
8 0
4 0
9 0
3 5 10 0
11 0
16 0
12 17 18 0
13 15 19 0
14 0
20 0
-1 -6 0
-1 -7 0
-6 -7 0
-3 -5 0
-3 -10 0
-5 -10 0
-12 -17 0
-12 -18 0
-17 -18 0
-13 -15 0
-13 -19 0
-15 -19 0
